; set definitions

; (define-fun set-singleton ((i Int)) (Set Int) (set.singleton i))
; (define-fun set-union ((s1 (Set Int)) (s2 (Set Int))) (Set Int) (set.union s1 s2))
; (define-fun set-minus ((s1 (Set Int)) (s2 (Set Int))) (Set Int) (set.minus s1 s2))
; (define-fun set-insert ((i Int) (s1 (Set Int))) (Set Int) (set.insert i s1))
